278849.0
3092
1 3 4 6 7 9 11 12 15 16 18 19 21 22 24 25 26 27 33 37 38 39 43 46 47 48 50 51 52 54 55 56 57 58 61 63 64 66 67 68 69 72 74 80 81 82 86 87 88 89 90 92 93 94 95 96 97 98 103 105 107 108 112 113 114 118 119 120 121 122 125 127 128 129 130 133 135 138 140 141 142 145 147 149 150 151 153 155 158 159 161 162 163 164 166 168 169 170 171 173 175 176 177 178 179 180 181 182 186 187 189 190 191 195 196 197 